25
2 1 4
3 1 3
3 2 9
4 0 6
5 0 3
5 4 2
6 0 3
6 1 3
6 5 6
7 0 3
7 4 4
8 0 8
8 1 7
8 2 3
8 3 7
8 5 9
9 0 10
9 5 9
10 0 3
10 1 4
10 4 4
10 5 8
10 6 1
10 8 6
11 2 4
11 4 1
11 8 5
11 9 2
11 10 6
12 0 5
12 1 5
12 2 1
12 3 6
12 7 5
12 10 2
12 11 9
13 0 3
13 1 3
13 2 4
13 8 6
13 9 1
14 2 8
14 4 3
14 5 10
14 6 10
14 8 7
14 10 10
14 11 8
14 13 8
15 2 9
15 4 2
15 5 4
15 7 1
15 8 2
15 12 10
15 14 3
16 0 10
16 9 7
16 12 10
16 13 3
17 0 2
17 2 7
17 4 10
17 5 6
17 6 3
17 10 5
17 11 4
17 13 9
17 14 1
17 16 3
18 0 2
18 1 7
18 3 2
18 5 10
18 9 3
18 10 1
18 11 4
18 12 7
18 14 9
18 15 7
18 17 5
19 0 9
19 6 4
19 7 4
19 9 9
19 12 5
19 14 10
19 16 10
19 17 7
20 6 3
20 7 8
20 8 8
20 9 5
20 10 2
20 13 5
20 16 2
20 17 10
20 18 6
21 0 9
21 1 2
21 3 10
21 7 10
21 8 9
21 10 8
21 11 2
21 12 2
21 13 6
21 17 3
21 18 9
21 19 7
21 20 8
22 4 9
22 6 4
22 7 1
22 11 8
22 12 9
22 15 7
22 17 8
22 18 6
22 19 2
22 20 9
23 2 9
23 5 7
23 6 3
23 7 7
23 9 3
23 10 9
23 15 4
23 16 8
23 17 8
23 18 4
23 21 8
23 22 8
24 0 8
24 2 1
24 3 10
24 11 8
24 12 4
24 15 5
24 16 10
24 17 2
24 19 9
24 22 10
